
%FILE DATA:	Soccer Computational Problem for MiniZinc Models	%
%AUTHOR:	Jack Wall	%
%CONTACT:  	116397063@umail.ucc.ie			%
%LAST UPDATE:	03/03/2020, 12:07:43						%
%DESCRIPTION: 	66 games played with 44 games left				%


n=11; %number of teams

%Games to play
games=[|2,5|3,10|8,4|8,9|11,7|8,7|8,1|9,1|7,10|1,9|11,1|7,2|1,10|1,8|6,1|7,9|10,6|9,5|9,7|5,7|3,8|5,2|10,1|1,6|9,6|2,1|6,7|1,7|7,4|8,11|7,6|4,2|2,7|4,8|4,3|11,2|11,9|5,11|2,9|11,3|8,6|9,10|8,10|4,11|];

%Initial points
iPoints=[15,19,16,16,28,7,15,8,19,19,19];

%POSITION CONSTRAINTS
% [|teamID, operator, position|...]
% operators index:
%  1 for =  operator
%  2 for >  operator
%  3 for >= operator
%  4 for <  operator
%  5 for <= operator
positionConstraints=[|7,5,1|5,2,1|2,2,2|];